50
7
5
2
36 30
100 45
130 50
40 130
70 110
135 100
36 30
100 45
130 50
40 130
70 110
135 100
159 116
75 12
25 88
102 23
154 18
88 110
7 119
124 31
118 52
117 126
0 124
92 96
101 60
19 124
128 127
68 42
75 129
8 85
73 17
122 0
88 12
25 148
154 127
129 128
41 109
116 128
87 97
27 151
77 108
73 34
108 143
133 52
78 43
157 36
95 17
57 78
135 105
120 131
94 74
50 39
120 137
4 133
123 68
5 149
136 102
113 26
89 71
18 117
83 26
123 49
